<number of tasks>
50

<cycle time>
1000

<order strength>
0.196


<task times>
1 315
2 436
3 638
4 512
5 355
6 675
7 803
8 483
9 361
10 635
11 455
12 421
13 465
14 478
15 602
16 531
17 532
18 504
19 562
20 364
21 486
22 732
23 377
24 621
25 597
26 589
27 529
28 419
29 455
30 445
31 469
32 728
33 355
34 391
35 729
36 639
37 601
38 454
39 425
40 665
41 518
42 533
43 397
44 407
45 382
46 586
47 487
48 467
49 385
50 546

<precedence relations>
1,6
2,7
3,5
3,8
3,10
3,11
3,12
3,18
4,9
4,13
5,14
6,18
7,16
8,17
9,15
9,19
9,21
11,20
11,24
11,49
12,20
14,23
15,22
16,23
17,23
18,40
19,24
21,25
21,26
22,27
23,29
24,28
24,47
25,30
27,31
28,32
29,33
30,34
30,35
30,36
31,39
32,37
33,38
34,40
34,41
35,45
37,42
38,43
39,44
39,45
40,47
40,49
40,50
41,46
41,48

<end>
